% Auto-generated by scripts/generate_dzn.py
% problem_type   = regex
% instance       = regex_71
% source_json    = instances_json/2_high_blowup/regex_71.json
% blowup         = 35.285714285714285
% representation = DFA

mode = 0;

var_count = 14;
Q = 494;
S = 3;
q0 = 1;
F = {306, 307, 308, 309, 310, 311, 312, 313, 314, 315, 316, 317, 318, 319, 320, 321, 322, 323, 324, 325, 326, 327, 328, 329, 330, 331, 332, 333, 334, 335, 336, 337, 338, 339, 340, 341, 342, 343, 344, 345, 346, 347, 348, 349, 350, 351, 352, 353, 354, 355, 356, 357, 358, 359, 360, 361, 362, 363, 364, 365, 366, 367, 368, 369, 370, 371, 372, 373, 374, 375, 376, 377, 378, 379, 380, 381, 382, 383, 384, 385, 386, 387, 388, 389, 390, 391, 392, 393, 394, 395, 396, 397, 398, 399, 400, 401, 402, 403, 404, 405, 406, 407, 408, 409, 410, 411, 412, 413, 414, 415, 416, 417, 418, 419, 420, 421, 422, 423, 424, 425, 426, 427, 428, 429, 430, 431, 432, 433, 434, 435, 436, 437, 438, 439, 440, 441, 442, 443, 444, 445, 446, 447, 448, 449, 450, 451, 452, 453, 454, 455, 456, 457, 458, 459, 460, 461, 462, 463, 464, 465, 466, 467, 468, 469, 470, 471, 472, 473, 474, 475, 476, 477, 478, 479, 480, 481, 482, 483, 484, 485, 486, 487, 488, 489, 490, 491, 492, 493, 494};
d_dfa = array2d(1..494, 1..3, [
  1, 1, 2,
  1, 1, 3,
  1, 1, 4,
  6, 6, 5,
  8, 8, 7,
  10, 10, 9,
  12, 12, 11,
  14, 14, 13,
  16, 16, 15,
  16, 16, 17,
  19, 19, 18,
  21, 21, 20,
  23, 23, 22,
  23, 23, 24,
  26, 26, 25,
  26, 26, 27,
  26, 26, 28,
  30, 30, 29,
  32, 32, 31,
  34, 34, 33,
  34, 34, 35,
  37, 37, 36,
  37, 37, 38,
  37, 37, 39,
  41, 41, 40,
  43, 43, 42,
  43, 43, 44,
  43, 43, 45,
  47, 47, 46,
  49, 49, 48,
  51, 51, 50,
  51, 51, 52,
  54, 54, 53,
  54, 54, 55,
  54, 54, 56,
  58, 58, 57,
  60, 60, 59,
  60, 60, 61,
  60, 60, 62,
  64, 64, 63,
  66, 66, 65,
  68, 68, 67,
  68, 68, 69,
  68, 68, 70,
  72, 72, 71,
  74, 74, 73,
  76, 76, 75,
  78, 78, 77,
  78, 78, 79,
  81, 81, 80,
  81, 81, 82,
  81, 81, 83,
  85, 85, 84,
  87, 87, 86,
  87, 87, 88,
  87, 87, 89,
  91, 91, 90,
  93, 93, 92,
  95, 95, 94,
  95, 95, 96,
  95, 95, 97,
  99, 99, 98,
  101, 101, 100,
  103, 103, 102,
  105, 105, 104,
  105, 105, 106,
  108, 108, 107,
  108, 108, 109,
  108, 108, 110,
  112, 112, 111,
  114, 114, 113,
  116, 116, 115,
  118, 118, 117,
  120, 120, 119,
  122, 122, 121,
  122, 122, 123,
  125, 125, 124,
  125, 125, 126,
  125, 125, 127,
  129, 129, 128,
  131, 131, 130,
  131, 131, 132,
  131, 131, 133,
  135, 135, 134,
  137, 137, 136,
  139, 139, 138,
  139, 139, 140,
  139, 139, 141,
  143, 143, 142,
  145, 145, 144,
  147, 147, 146,
  149, 149, 148,
  149, 149, 150,
  152, 152, 151,
  152, 152, 153,
  152, 152, 154,
  156, 156, 155,
  158, 158, 157,
  160, 160, 159,
  162, 162, 161,
  164, 164, 163,
  166, 166, 165,
  166, 166, 167,
  169, 169, 168,
  169, 169, 170,
  169, 169, 171,
  173, 173, 172,
  175, 175, 174,
  175, 175, 176,
  175, 175, 177,
  179, 179, 178,
  181, 181, 180,
  183, 183, 182,
  185, 185, 184,
  187, 187, 186,
  187, 187, 188,
  190, 190, 189,
  192, 192, 191,
  194, 194, 193,
  194, 194, 195,
  197, 197, 196,
  197, 197, 198,
  197, 197, 199,
  201, 201, 200,
  203, 203, 202,
  203, 203, 204,
  203, 203, 205,
  207, 207, 206,
  209, 209, 208,
  211, 211, 210,
  211, 211, 212,
  211, 211, 213,
  215, 215, 214,
  217, 217, 216,
  219, 219, 218,
  221, 221, 220,
  221, 221, 222,
  224, 224, 223,
  224, 224, 225,
  224, 224, 226,
  228, 228, 227,
  230, 230, 229,
  232, 232, 231,
  234, 234, 233,
  236, 236, 235,
  238, 238, 237,
  238, 238, 239,
  241, 241, 240,
  241, 241, 242,
  241, 241, 243,
  245, 245, 244,
  247, 247, 246,
  247, 247, 248,
  247, 247, 249,
  251, 251, 250,
  253, 253, 252,
  255, 255, 254,
  257, 257, 256,
  259, 259, 258,
  259, 259, 260,
  262, 262, 261,
  264, 264, 263,
  266, 266, 265,
  266, 266, 267,
  269, 269, 268,
  269, 269, 270,
  269, 269, 271,
  273, 273, 272,
  275, 275, 274,
  275, 275, 276,
  275, 275, 277,
  279, 279, 278,
  281, 281, 280,
  283, 283, 282,
  283, 283, 284,
  283, 283, 285,
  287, 287, 286,
  289, 289, 288,
  291, 291, 290,
  293, 293, 292,
  293, 293, 294,
  296, 296, 295,
  298, 298, 297,
  300, 300, 299,
  300, 300, 301,
  303, 303, 302,
  303, 303, 304,
  303, 303, 305,
  307, 307, 306,
  309, 309, 308,
  311, 311, 310,
  311, 311, 312,
  314, 314, 313,
  314, 314, 315,
  314, 314, 316,
  318, 318, 317,
  320, 320, 319,
  320, 320, 321,
  320, 320, 322,
  324, 324, 323,
  326, 326, 325,
  328, 328, 327,
  328, 328, 329,
  328, 328, 330,
  332, 332, 331,
  334, 334, 333,
  336, 336, 335,
  338, 338, 337,
  338, 338, 339,
  341, 341, 340,
  341, 341, 342,
  341, 341, 343,
  345, 345, 344,
  347, 347, 346,
  349, 349, 348,
  351, 351, 350,
  353, 353, 352,
  355, 355, 354,
  355, 355, 356,
  358, 358, 357,
  358, 358, 359,
  358, 358, 360,
  362, 362, 361,
  364, 364, 363,
  364, 364, 365,
  364, 364, 366,
  368, 368, 367,
  370, 370, 369,
  372, 372, 371,
  374, 374, 373,
  376, 376, 375,
  376, 376, 377,
  379, 379, 378,
  381, 381, 380,
  383, 383, 382,
  383, 383, 384,
  386, 386, 385,
  386, 386, 387,
  386, 386, 388,
  390, 390, 389,
  392, 392, 391,
  392, 392, 393,
  392, 392, 394,
  396, 396, 395,
  398, 398, 397,
  400, 400, 399,
  400, 400, 401,
  400, 400, 402,
  404, 404, 403,
  406, 406, 405,
  408, 408, 407,
  410, 410, 409,
  410, 410, 411,
  413, 413, 412,
  415, 415, 414,
  417, 417, 416,
  417, 417, 418,
  420, 420, 419,
  420, 420, 421,
  420, 420, 422,
  424, 424, 423,
  426, 426, 425,
  428, 428, 427,
  428, 428, 429,
  431, 431, 430,
  431, 431, 432,
  431, 431, 433,
  435, 435, 434,
  437, 437, 436,
  437, 437, 438,
  437, 437, 439,
  441, 441, 440,
  443, 443, 442,
  445, 445, 444,
  445, 445, 446,
  445, 445, 447,
  449, 449, 448,
  451, 451, 450,
  453, 453, 452,
  455, 455, 454,
  455, 455, 456,
  458, 458, 457,
  458, 458, 459,
  458, 458, 460,
  462, 462, 461,
  464, 464, 463,
  466, 466, 465,
  468, 468, 467,
  470, 470, 469,
  472, 472, 471,
  472, 472, 473,
  475, 475, 474,
  475, 475, 476,
  475, 475, 477,
  479, 479, 478,
  481, 481, 480,
  483, 483, 482,
  483, 483, 484,
  486, 486, 485,
  486, 486, 487,
  486, 486, 488,
  490, 490, 489,
  492, 492, 491,
  492, 492, 493,
  492, 492, 494,
  307, 307, 306,
  309, 309, 308,
  311, 311, 310,
  311, 311, 312,
  314, 314, 313,
  314, 314, 315,
  314, 314, 316,
  318, 318, 317,
  320, 320, 319,
  320, 320, 321,
  320, 320, 322,
  324, 324, 323,
  326, 326, 325,
  328, 328, 327,
  328, 328, 329,
  328, 328, 330,
  332, 332, 331,
  334, 334, 333,
  336, 336, 335,
  338, 338, 337,
  338, 338, 339,
  341, 341, 340,
  341, 341, 342,
  341, 341, 343,
  345, 345, 344,
  347, 347, 346,
  349, 349, 348,
  351, 351, 350,
  353, 353, 352,
  355, 355, 354,
  355, 355, 356,
  358, 358, 357,
  358, 358, 359,
  358, 358, 360,
  362, 362, 361,
  364, 364, 363,
  364, 364, 365,
  364, 364, 366,
  368, 368, 367,
  370, 370, 369,
  372, 372, 371,
  374, 374, 373,
  376, 376, 375,
  376, 376, 377,
  379, 379, 378,
  381, 381, 380,
  383, 383, 382,
  383, 383, 384,
  386, 386, 385,
  386, 386, 387,
  386, 386, 388,
  390, 390, 389,
  392, 392, 391,
  392, 392, 393,
  392, 392, 394,
  396, 396, 395,
  398, 398, 397,
  400, 400, 399,
  400, 400, 401,
  400, 400, 402,
  404, 404, 403,
  406, 406, 405,
  408, 408, 407,
  410, 410, 409,
  410, 410, 411,
  413, 413, 412,
  415, 415, 414,
  417, 417, 416,
  417, 417, 418,
  420, 420, 419,
  420, 420, 421,
  420, 420, 422,
  424, 424, 423,
  426, 426, 425,
  428, 428, 427,
  428, 428, 429,
  431, 431, 430,
  431, 431, 432,
  431, 431, 433,
  435, 435, 434,
  437, 437, 436,
  437, 437, 438,
  437, 437, 439,
  441, 441, 440,
  443, 443, 442,
  445, 445, 444,
  445, 445, 446,
  445, 445, 447,
  449, 449, 448,
  451, 451, 450,
  453, 453, 452,
  455, 455, 454,
  455, 455, 456,
  458, 458, 457,
  458, 458, 459,
  458, 458, 460,
  462, 462, 461,
  464, 464, 463,
  466, 466, 465,
  468, 468, 467,
  470, 470, 469,
  472, 472, 471,
  472, 472, 473,
  475, 475, 474,
  475, 475, 476,
  475, 475, 477,
  479, 479, 478,
  481, 481, 480,
  483, 483, 482,
  483, 483, 484,
  486, 486, 485,
  486, 486, 487,
  486, 486, 488,
  490, 490, 489,
  492, 492, 491,
  492, 492, 493,
  492, 492, 494,
  74, 74, 73,
  76, 76, 75,
  78, 78, 77,
  78, 78, 79,
  81, 81, 80,
  81, 81, 82,
  81, 81, 83,
  85, 85, 84,
  87, 87, 86,
  87, 87, 88,
  87, 87, 89,
  91, 91, 90,
  93, 93, 92,
  95, 95, 94,
  95, 95, 96,
  95, 95, 97,
  99, 99, 98,
  101, 101, 100,
  103, 103, 102,
  105, 105, 104,
  105, 105, 106,
  108, 108, 107,
  108, 108, 109,
  108, 108, 110,
  112, 112, 111,
  114, 114, 113,
  116, 116, 115,
  19, 19, 18,
  21, 21, 20,
  23, 23, 22,
  23, 23, 24,
  26, 26, 25,
  26, 26, 27,
  26, 26, 28,
  6, 6, 5,
  1, 1, 2,
  1, 1, 3,
  1, 1, 4,
  8, 8, 7,
  10, 10, 9,
  12, 12, 11,
  14, 14, 13,
  16, 16, 15,
  16, 16, 17,
  30, 30, 29,
  32, 32, 31,
  34, 34, 33,
  34, 34, 35,
  37, 37, 36,
  37, 37, 38,
  37, 37, 39,
  41, 41, 40,
  43, 43, 42,
  43, 43, 44,
  43, 43, 45,
  47, 47, 46,
  49, 49, 48,
  51, 51, 50,
  51, 51, 52,
  54, 54, 53,
  54, 54, 55,
  54, 54, 56,
  58, 58, 57,
  60, 60, 59,
  60, 60, 61,
  60, 60, 62,
  64, 64, 63,
  66, 66, 65,
  68, 68, 67,
  68, 68, 69,
  68, 68, 70,
  72, 72, 71
]);
d_nfa = array2d(1..494, 1..3, [
  {}, {}, {},
  {}, {}, {},
  {}, {}, {},
  {}, {}, {},
  {}, {}, {},
  {}, {}, {},
  {}, {}, {},
  {}, {}, {},
  {}, {}, {},
  {}, {}, {},
  {}, {}, {},
  {}, {}, {},
  {}, {}, {},
  {}, {}, {},
  {}, {}, {},
  {}, {}, {},
  {}, {}, {},
  {}, {}, {},
  {}, {}, {},
  {}, {}, {},
  {}, {}, {},
  {}, {}, {},
  {}, {}, {},
  {}, {}, {},
  {}, {}, {},
  {}, {}, {},
  {}, {}, {},
  {}, {}, {},
  {}, {}, {},
  {}, {}, {},
  {}, {}, {},
  {}, {}, {},
  {}, {}, {},
  {}, {}, {},
  {}, {}, {},
  {}, {}, {},
  {}, {}, {},
  {}, {}, {},
  {}, {}, {},
  {}, {}, {},
  {}, {}, {},
  {}, {}, {},
  {}, {}, {},
  {}, {}, {},
  {}, {}, {},
  {}, {}, {},
  {}, {}, {},
  {}, {}, {},
  {}, {}, {},
  {}, {}, {},
  {}, {}, {},
  {}, {}, {},
  {}, {}, {},
  {}, {}, {},
  {}, {}, {},
  {}, {}, {},
  {}, {}, {},
  {}, {}, {},
  {}, {}, {},
  {}, {}, {},
  {}, {}, {},
  {}, {}, {},
  {}, {}, {},
  {}, {}, {},
  {}, {}, {},
  {}, {}, {},
  {}, {}, {},
  {}, {}, {},
  {}, {}, {},
  {}, {}, {},
  {}, {}, {},
  {}, {}, {},
  {}, {}, {},
  {}, {}, {},
  {}, {}, {},
  {}, {}, {},
  {}, {}, {},
  {}, {}, {},
  {}, {}, {},
  {}, {}, {},
  {}, {}, {},
  {}, {}, {},
  {}, {}, {},
  {}, {}, {},
  {}, {}, {},
  {}, {}, {},
  {}, {}, {},
  {}, {}, {},
  {}, {}, {},
  {}, {}, {},
  {}, {}, {},
  {}, {}, {},
  {}, {}, {},
  {}, {}, {},
  {}, {}, {},
  {}, {}, {},
  {}, {}, {},
  {}, {}, {},
  {}, {}, {},
  {}, {}, {},
  {}, {}, {},
  {}, {}, {},
  {}, {}, {},
  {}, {}, {},
  {}, {}, {},
  {}, {}, {},
  {}, {}, {},
  {}, {}, {},
  {}, {}, {},
  {}, {}, {},
  {}, {}, {},
  {}, {}, {},
  {}, {}, {},
  {}, {}, {},
  {}, {}, {},
  {}, {}, {},
  {}, {}, {},
  {}, {}, {},
  {}, {}, {},
  {}, {}, {},
  {}, {}, {},
  {}, {}, {},
  {}, {}, {},
  {}, {}, {},
  {}, {}, {},
  {}, {}, {},
  {}, {}, {},
  {}, {}, {},
  {}, {}, {},
  {}, {}, {},
  {}, {}, {},
  {}, {}, {},
  {}, {}, {},
  {}, {}, {},
  {}, {}, {},
  {}, {}, {},
  {}, {}, {},
  {}, {}, {},
  {}, {}, {},
  {}, {}, {},
  {}, {}, {},
  {}, {}, {},
  {}, {}, {},
  {}, {}, {},
  {}, {}, {},
  {}, {}, {},
  {}, {}, {},
  {}, {}, {},
  {}, {}, {},
  {}, {}, {},
  {}, {}, {},
  {}, {}, {},
  {}, {}, {},
  {}, {}, {},
  {}, {}, {},
  {}, {}, {},
  {}, {}, {},
  {}, {}, {},
  {}, {}, {},
  {}, {}, {},
  {}, {}, {},
  {}, {}, {},
  {}, {}, {},
  {}, {}, {},
  {}, {}, {},
  {}, {}, {},
  {}, {}, {},
  {}, {}, {},
  {}, {}, {},
  {}, {}, {},
  {}, {}, {},
  {}, {}, {},
  {}, {}, {},
  {}, {}, {},
  {}, {}, {},
  {}, {}, {},
  {}, {}, {},
  {}, {}, {},
  {}, {}, {},
  {}, {}, {},
  {}, {}, {},
  {}, {}, {},
  {}, {}, {},
  {}, {}, {},
  {}, {}, {},
  {}, {}, {},
  {}, {}, {},
  {}, {}, {},
  {}, {}, {},
  {}, {}, {},
  {}, {}, {},
  {}, {}, {},
  {}, {}, {},
  {}, {}, {},
  {}, {}, {},
  {}, {}, {},
  {}, {}, {},
  {}, {}, {},
  {}, {}, {},
  {}, {}, {},
  {}, {}, {},
  {}, {}, {},
  {}, {}, {},
  {}, {}, {},
  {}, {}, {},
  {}, {}, {},
  {}, {}, {},
  {}, {}, {},
  {}, {}, {},
  {}, {}, {},
  {}, {}, {},
  {}, {}, {},
  {}, {}, {},
  {}, {}, {},
  {}, {}, {},
  {}, {}, {},
  {}, {}, {},
  {}, {}, {},
  {}, {}, {},
  {}, {}, {},
  {}, {}, {},
  {}, {}, {},
  {}, {}, {},
  {}, {}, {},
  {}, {}, {},
  {}, {}, {},
  {}, {}, {},
  {}, {}, {},
  {}, {}, {},
  {}, {}, {},
  {}, {}, {},
  {}, {}, {},
  {}, {}, {},
  {}, {}, {},
  {}, {}, {},
  {}, {}, {},
  {}, {}, {},
  {}, {}, {},
  {}, {}, {},
  {}, {}, {},
  {}, {}, {},
  {}, {}, {},
  {}, {}, {},
  {}, {}, {},
  {}, {}, {},
  {}, {}, {},
  {}, {}, {},
  {}, {}, {},
  {}, {}, {},
  {}, {}, {},
  {}, {}, {},
  {}, {}, {},
  {}, {}, {},
  {}, {}, {},
  {}, {}, {},
  {}, {}, {},
  {}, {}, {},
  {}, {}, {},
  {}, {}, {},
  {}, {}, {},
  {}, {}, {},
  {}, {}, {},
  {}, {}, {},
  {}, {}, {},
  {}, {}, {},
  {}, {}, {},
  {}, {}, {},
  {}, {}, {},
  {}, {}, {},
  {}, {}, {},
  {}, {}, {},
  {}, {}, {},
  {}, {}, {},
  {}, {}, {},
  {}, {}, {},
  {}, {}, {},
  {}, {}, {},
  {}, {}, {},
  {}, {}, {},
  {}, {}, {},
  {}, {}, {},
  {}, {}, {},
  {}, {}, {},
  {}, {}, {},
  {}, {}, {},
  {}, {}, {},
  {}, {}, {},
  {}, {}, {},
  {}, {}, {},
  {}, {}, {},
  {}, {}, {},
  {}, {}, {},
  {}, {}, {},
  {}, {}, {},
  {}, {}, {},
  {}, {}, {},
  {}, {}, {},
  {}, {}, {},
  {}, {}, {},
  {}, {}, {},
  {}, {}, {},
  {}, {}, {},
  {}, {}, {},
  {}, {}, {},
  {}, {}, {},
  {}, {}, {},
  {}, {}, {},
  {}, {}, {},
  {}, {}, {},
  {}, {}, {},
  {}, {}, {},
  {}, {}, {},
  {}, {}, {},
  {}, {}, {},
  {}, {}, {},
  {}, {}, {},
  {}, {}, {},
  {}, {}, {},
  {}, {}, {},
  {}, {}, {},
  {}, {}, {},
  {}, {}, {},
  {}, {}, {},
  {}, {}, {},
  {}, {}, {},
  {}, {}, {},
  {}, {}, {},
  {}, {}, {},
  {}, {}, {},
  {}, {}, {},
  {}, {}, {},
  {}, {}, {},
  {}, {}, {},
  {}, {}, {},
  {}, {}, {},
  {}, {}, {},
  {}, {}, {},
  {}, {}, {},
  {}, {}, {},
  {}, {}, {},
  {}, {}, {},
  {}, {}, {},
  {}, {}, {},
  {}, {}, {},
  {}, {}, {},
  {}, {}, {},
  {}, {}, {},
  {}, {}, {},
  {}, {}, {},
  {}, {}, {},
  {}, {}, {},
  {}, {}, {},
  {}, {}, {},
  {}, {}, {},
  {}, {}, {},
  {}, {}, {},
  {}, {}, {},
  {}, {}, {},
  {}, {}, {},
  {}, {}, {},
  {}, {}, {},
  {}, {}, {},
  {}, {}, {},
  {}, {}, {},
  {}, {}, {},
  {}, {}, {},
  {}, {}, {},
  {}, {}, {},
  {}, {}, {},
  {}, {}, {},
  {}, {}, {},
  {}, {}, {},
  {}, {}, {},
  {}, {}, {},
  {}, {}, {},
  {}, {}, {},
  {}, {}, {},
  {}, {}, {},
  {}, {}, {},
  {}, {}, {},
  {}, {}, {},
  {}, {}, {},
  {}, {}, {},
  {}, {}, {},
  {}, {}, {},
  {}, {}, {},
  {}, {}, {},
  {}, {}, {},
  {}, {}, {},
  {}, {}, {},
  {}, {}, {},
  {}, {}, {},
  {}, {}, {},
  {}, {}, {},
  {}, {}, {},
  {}, {}, {},
  {}, {}, {},
  {}, {}, {},
  {}, {}, {},
  {}, {}, {},
  {}, {}, {},
  {}, {}, {},
  {}, {}, {},
  {}, {}, {},
  {}, {}, {},
  {}, {}, {},
  {}, {}, {},
  {}, {}, {},
  {}, {}, {},
  {}, {}, {},
  {}, {}, {},
  {}, {}, {},
  {}, {}, {},
  {}, {}, {},
  {}, {}, {},
  {}, {}, {},
  {}, {}, {},
  {}, {}, {},
  {}, {}, {},
  {}, {}, {},
  {}, {}, {},
  {}, {}, {},
  {}, {}, {},
  {}, {}, {},
  {}, {}, {},
  {}, {}, {},
  {}, {}, {},
  {}, {}, {},
  {}, {}, {},
  {}, {}, {},
  {}, {}, {},
  {}, {}, {},
  {}, {}, {},
  {}, {}, {},
  {}, {}, {},
  {}, {}, {},
  {}, {}, {},
  {}, {}, {},
  {}, {}, {},
  {}, {}, {},
  {}, {}, {},
  {}, {}, {},
  {}, {}, {},
  {}, {}, {},
  {}, {}, {},
  {}, {}, {},
  {}, {}, {},
  {}, {}, {},
  {}, {}, {},
  {}, {}, {},
  {}, {}, {},
  {}, {}, {},
  {}, {}, {},
  {}, {}, {},
  {}, {}, {},
  {}, {}, {},
  {}, {}, {},
  {}, {}, {},
  {}, {}, {},
  {}, {}, {},
  {}, {}, {},
  {}, {}, {},
  {}, {}, {},
  {}, {}, {},
  {}, {}, {},
  {}, {}, {},
  {}, {}, {},
  {}, {}, {},
  {}, {}, {},
  {}, {}, {},
  {}, {}, {},
  {}, {}, {},
  {}, {}, {},
  {}, {}, {},
  {}, {}, {},
  {}, {}, {},
  {}, {}, {},
  {}, {}, {},
  {}, {}, {},
  {}, {}, {},
  {}, {}, {},
  {}, {}, {},
  {}, {}, {},
  {}, {}, {},
  {}, {}, {},
  {}, {}, {},
  {}, {}, {},
  {}, {}, {},
  {}, {}, {},
  {}, {}, {},
  {}, {}, {},
  {}, {}, {},
  {}, {}, {},
  {}, {}, {}
]);
